set VV := 0 1 2 3 4 5 6 7 8 9 ;
set VS := 0 1 2 3 4 5 6 7 8 9 10 11 12 13 14 15 16 17 18 19 20 21 22 23 ;
param cv := 
0 17
1 12
2 19
3 18
4 15
5 19
6 25
7 19
8 17
9 12
;
param cs := 
0 29
1 20
2 26
3 28
4 23
5 22
6 33
7 31
8 35
9 23
10 22
11 26
12 31
13 36
14 22
15 29
16 35
17 36
18 40
19 29
20 31
21 34
22 38
23 35
;
param bv:	 0 1 2 3 4 5 6 7 8 9 := 
		0 0 21 0 0 0 0 0 14 0 0 
		1 0 0 0 0 0 0 19 0 0 0 
		2 0 0 0 0 0 23 0 18 0 17 
		3 0 0 0 0 0 0 0 0 0 19 
		4 0 0 0 0 0 0 0 0 0 17 
		5 0 0 0 0 0 0 0 0 0 0 
		6 0 0 0 0 0 0 0 24 0 0 
		7 0 0 0 0 0 0 0 0 20 0 
		8 0 0 0 0 0 0 0 0 0 0 
		9 0 0 0 0 0 0 0 0 0 0 
;
param bs:	 0 1 2 3 4 5 6 7 8 9 10 11 12 13 14 15 16 17 18 19 20 21 22 23 := 
		0 0 29 0 0 0 0 0 0 0 0 0 0 0 0 0 0 0 30 0 0 0 0 0 25 
		1 29 0 0 0 0 0 0 0 0 0 0 0 0 0 0 20 0 0 0 0 0 0 30 0 
		2 0 0 0 0 0 34 0 0 0 0 0 0 34 0 0 0 0 0 22 0 30 0 38 0 
		3 0 0 0 0 0 0 37 0 0 0 0 0 0 0 0 0 0 0 40 0 35 0 0 0 
		4 0 0 0 0 0 0 0 0 0 0 0 0 20 0 29 0 0 0 0 0 0 0 0 0 
		5 0 0 34 0 0 0 26 0 0 0 0 0 0 0 0 0 0 0 0 0 23 0 0 0 
		6 0 0 0 37 0 26 0 0 0 0 0 0 32 0 37 36 0 0 0 0 0 0 0 26 
		7 0 0 0 0 0 0 0 0 0 0 0 0 37 0 38 27 0 30 0 0 0 0 0 0 
		8 0 0 0 0 0 0 0 0 0 28 0 35 0 0 0 0 0 0 0 0 20 0 0 0 
		9 0 0 0 0 0 0 0 0 28 0 0 0 0 0 0 0 0 0 38 29 31 0 0 0 
		10 0 0 0 0 0 0 0 0 0 0 0 0 0 0 0 0 0 24 0 0 0 0 33 0 
		11 0 0 0 0 0 0 0 0 35 0 0 0 0 0 0 0 0 0 25 0 0 0 0 0 
		12 0 0 34 0 20 0 32 37 0 0 0 0 0 0 0 30 0 0 0 0 0 0 21 0 
		13 0 0 0 0 0 0 0 0 0 0 0 0 0 0 0 21 0 0 33 0 0 0 0 0 
		14 0 0 0 0 29 0 37 38 0 0 0 0 0 0 0 0 31 0 0 0 0 0 22 0 
		15 0 20 0 0 0 0 36 27 0 0 0 0 30 21 0 0 0 0 0 0 0 0 0 32 
		16 0 0 0 0 0 0 0 0 0 0 0 0 0 0 31 0 0 38 0 0 0 0 0 0 
		17 30 0 0 0 0 0 0 30 0 0 24 0 0 0 0 0 38 0 0 0 0 0 0 0 
		18 0 0 22 40 0 0 0 0 0 38 0 25 0 33 0 0 0 0 0 0 0 0 0 25 
		19 0 0 0 0 0 0 0 0 0 29 0 0 0 0 0 0 0 0 0 0 0 29 0 0 
		20 0 0 30 35 0 23 0 0 20 31 0 0 0 0 0 0 0 0 0 0 0 0 0 0 
		21 0 0 0 0 0 0 0 0 0 0 0 0 0 0 0 0 0 0 0 29 0 0 0 0 
		22 0 30 38 0 0 0 0 0 0 0 33 0 21 0 22 0 0 0 0 0 0 0 0 31 
		23 25 0 0 0 0 0 26 0 0 0 0 0 0 0 0 32 0 0 25 0 0 0 31 0 
;
